nEmpreses = 70;
nReunions = 154;
nTaules = 14;
nFrangesTotal = 21;
nForats = 21;

reunions = [|0,0,0,0,6,4,1,9,2,3,7,5,8,0,0,0,0,0,0,0,0,
|0,0,0,89,19,134,1,0,0,0,0,0,0,0,0,0,0,0,0,0,0,
|0,0,0,0,0,0,0,34,2,27,90,135,0,0,0,0,0,0,0,0,0,
|0,0,0,0,0,0,0,0,105,3,136,28,68,0,0,0,0,0,0,0,0,
|0,0,0,0,0,4,35,29,0,0,0,0,0,0,0,0,0,0,0,0,0,
|0,0,0,0,0,0,0,0,78,149,30,5,36,10,0,0,0,0,0,0,0,
|0,0,0,0,6,79,31,150,49,0,0,0,0,0,0,0,0,0,0,0,0,
|0,0,0,0,0,0,0,0,32,37,7,151,50,0,0,0,0,0,0,0,0,
|0,0,0,0,0,0,0,0,0,0,0,69,8,137,0,0,0,0,0,0,0,
|0,0,0,0,0,91,20,9,70,58,51,0,0,0,0,0,0,0,0,0,0,
|0,17,15,16,11,18,13,14,12,0,0,0,0,0,0,0,0,0,0,0,0,
|0,0,0,62,11,46,106,0,0,0,0,0,0,0,0,0,0,0,0,0,0,
|0,0,0,0,0,0,0,0,12,107,71,0,0,0,0,0,0,0,0,0,0,
|0,0,0,0,0,0,13,92,122,0,0,0,0,0,0,0,0,0,0,0,0,
|0,23,21,22,19,24,20,0,0,0,0,0,0,0,0,0,0,0,0,0,0,
|0,93,21,0,0,0,0,0,0,0,0,0,0,0,0,0,0,0,0,0,0,
|0,0,0,22,0,0,0,0,0,0,0,0,0,0,0,0,0,0,0,0,0,
|0,23,138,25,47,52,0,0,0,0,0,0,0,0,0,0,0,0,0,0,0,
|0,0,0,0,0,24,26,14,38,114,0,0,0,0,0,0,0,0,0,0,0,
|0,0,15,0,0,0,0,0,0,0,0,0,0,0,0,0,0,0,0,0,0,
|0,0,0,16,0,0,0,0,0,0,0,0,0,0,0,0,0,0,0,0,0,
|0,17,0,0,0,0,0,0,0,0,0,0,0,0,0,0,0,0,0,0,0,
|0,0,0,0,108,18,0,0,0,0,0,0,0,0,0,0,0,0,0,0,0,
|0,109,94,25,139,33,26,123,0,0,0,0,0,0,0,0,0,0,0,0,0,
|0,0,0,0,0,33,31,29,32,27,30,28,0,0,0,0,0,0,0,0,0,
|0,0,0,0,0,0,0,0,0,0,0,124,99,10,140,44,0,0,0,0,0,
|0,0,0,0,0,0,35,34,38,37,39,40,36,0,0,0,0,0,0,0,0,
|0,0,0,0,0,0,0,0,0,95,39,41,0,0,0,0,0,0,0,0,0,
|0,0,0,0,0,0,0,0,96,53,115,40,141,0,0,0,0,0,0,0,0,
|0,0,0,0,0,0,0,0,0,0,0,80,42,0,0,0,0,0,0,0,0,
|0,0,0,0,0,0,0,0,0,0,0,41,42,43,45,0,0,0,0,0,0,
|0,0,0,0,0,0,0,0,0,0,81,59,152,43,0,0,0,0,0,0,0,
|0,0,0,0,0,0,0,0,0,0,0,0,82,125,45,44,0,0,0,0,0,
|0,0,0,0,0,0,0,0,142,72,153,0,0,0,0,0,0,0,0,0,0,
|0,0,0,0,0,0,63,83,154,0,0,0,0,0,0,0,0,0,0,0,0,
|0,0,0,0,0,0,84,54,0,0,0,0,0,0,0,0,0,0,0,0,0,
|0,0,0,0,0,0,0,0,0,0,0,0,60,55,0,0,0,0,0,0,0,
|0,0,0,0,0,0,0,0,0,85,61,56,126,0,0,0,0,0,0,0,0,
|0,143,110,48,47,46,57,0,0,0,0,0,0,0,0,0,0,0,0,0,0,
|0,0,0,0,0,52,57,54,49,53,51,56,50,55,0,0,0,0,0,0,0,
|0,0,0,0,0,0,0,0,0,58,61,59,60,0,0,0,0,0,0,0,0,
|0,0,0,48,97,111,0,0,0,0,0,0,0,0,0,0,0,0,0,0,0,
|0,0,0,62,0,0,0,0,0,0,0,0,0,0,0,0,0,0,0,0,0,
|0,0,64,67,65,66,63,0,0,0,0,0,0,0,0,0,0,0,0,0,0,
|0,0,64,144,127,0,0,0,0,0,0,0,0,0,0,0,0,0,0,0,0,
|0,0,0,128,65,73,98,112,116,0,0,0,0,0,0,0,0,0,0,0,0,
|0,0,0,0,0,66,74,100,0,0,0,0,0,0,0,0,0,0,0,0,0,
|0,0,86,67,0,0,0,0,0,0,0,0,0,0,0,0,0,0,0,0,0,
|0,0,0,76,77,73,74,75,70,72,71,69,68,0,0,0,0,0,0,0,0,
|0,0,0,0,0,117,145,75,0,0,0,0,0,0,0,0,0,0,0,0,0,
|0,0,0,76,0,0,0,0,0,0,0,0,0,0,0,0,0,0,0,0,0,
|0,0,0,118,77,129,0,0,0,0,0,0,0,0,0,0,0,0,0,0,0,
|0,0,86,88,87,79,84,83,78,85,81,80,82,0,0,0,0,0,0,0,0,
|0,0,130,113,87,0,0,0,0,0,0,0,0,0,0,0,0,0,0,0,0,
|0,0,0,88,0,0,0,0,0,0,0,0,0,0,0,0,0,0,0,0,0,
|0,93,94,89,97,91,98,92,96,95,90,0,0,0,0,0,0,0,0,0,0,
|0,0,0,0,0,0,0,100,102,104,103,101,99,0,0,0,0,0,0,0,0,
|0,0,0,0,0,0,0,0,0,0,0,101,0,0,0,0,0,0,0,0,0,
|0,0,0,0,0,0,0,146,102,0,0,0,0,0,0,0,0,0,0,0,0,
|0,0,0,0,0,0,0,0,0,131,103,0,0,0,0,0,0,0,0,0,0,
|0,0,0,0,0,0,0,0,0,104,0,0,0,0,0,0,0,0,0,0,0,
|0,109,110,113,108,111,106,112,105,107,0,0,0,0,0,0,0,0,0,0,0,
|0,0,0,0,0,0,0,0,0,147,132,119,0,0,0,0,0,0,0,0,0,
|0,0,0,118,121,117,133,120,116,114,115,119,0,0,0,0,0,0,0,0,0,
|0,0,130,128,127,129,133,123,122,131,132,124,126,125,0,0,0,0,0,0,0,
|148,143,138,144,139,134,145,146,142,147,136,135,141,137,140,0,0,0,0,0,0,
|148,0,0,0,0,0,0,0,0,0,0,0,0,0,0,0,0,0,0,0,0,
|0,0,0,0,0,0,0,120,0,0,0,0,0,0,0,0,0,0,0,0,0,
|0,0,0,0,121,0,0,0,0,0,0,0,0,0,0,0,0,0,0,0,0,
|0,0,0,0,0,0,0,150,154,149,153,151,152,0,0,0,0,0,0,0,0,
|];

fixades = [0, 0, 0, 1, 0, 0, 0, 0, 0, 0, 0, 0, 0, 0, 0, 0, 0, 2, 0, 0, 0, 0, 0, 3, 0, 0, 0, 0, 0, 0, 0, 0, 4, 0, 0, 0, 0, 0, 0, 0, 0, 0, 0, 0, 0, 5, 0, 0, 0, 0, 0, 6, 0, 0, 0, 0, 0, 0, 0, 0, 0, 0, 0, 0, 0, 7, 0, 0, 0, 0, 0, 0, 8, 0, 0, 0, 0, 0, 9, 0, 0, 0, 0, 0, 0, 0, 0, 0, 0, 0, 10, 0, 0, 0, 0, 0, 0, 0, 0, 0, 0, 0, 0, 0, 0, 0, 0, 0, 0, 0, 11, 0, 0, 0, 0, 0, 12, 0, 0, 0, 0, 0, 0, 0, 0, 0, 0, 0, 13, 0, 0, 0, 0, 14, 0, 0, 0, 0, 0, 0, 0, 0, 0, 0, 0, 0, 0, 0, 0, 0, 0, 0, 0, 0, ];


listReunions = [|1, 2, 7, 
|1, 3, 9, 
|1, 4, 10, 
|1, 5, 6, 
|1, 6, 12, 
|1, 7, 5, 
|1, 8, 11, 
|1, 9, 13, 
|1, 10, 8, 
|6, 26, 14, 
|11, 12, 5, 
|11, 13, 9, 
|11, 14, 7, 
|11, 19, 8, 
|11, 20, 3, 
|11, 21, 4, 
|11, 22, 2, 
|11, 23, 6, 
|15, 2, 5, 
|15, 10, 7, 
|15, 16, 3, 
|15, 17, 4, 
|15, 18, 2, 
|15, 19, 6, 
|24, 18, 4, 
|24, 19, 7, 
|25, 3, 10, 
|25, 4, 12, 
|25, 5, 8, 
|25, 6, 11, 
|25, 7, 7, 
|25, 8, 9, 
|25, 24, 6, 
|27, 3, 8, 
|27, 5, 7, 
|27, 6, 13, 
|27, 8, 10, 
|27, 19, 9, 
|27, 28, 11, 
|27, 29, 12, 
|28, 31, 12, 
|30, 31, 13, 
|32, 31, 14, 
|33, 26, 16, 
|33, 31, 15, 
|39, 12, 6, 
|39, 18, 5, 
|39, 42, 4, 
|40, 7, 9, 
|40, 8, 13, 
|40, 10, 11, 
|40, 18, 6, 
|40, 29, 10, 
|40, 36, 8, 
|40, 37, 14, 
|40, 38, 12, 
|40, 39, 7, 
|41, 10, 10, 
|41, 32, 12, 
|41, 37, 13, 
|41, 38, 11, 
|43, 12, 4, 
|44, 35, 7, 
|44, 45, 3, 
|44, 46, 5, 
|44, 47, 6, 
|44, 48, 4, 
|49, 4, 13, 
|49, 9, 12, 
|49, 10, 9, 
|49, 13, 11, 
|49, 34, 10, 
|49, 46, 6, 
|49, 47, 7, 
|49, 50, 8, 
|49, 51, 4, 
|49, 52, 5, 
|53, 6, 9, 
|53, 7, 6, 
|53, 30, 12, 
|53, 32, 11, 
|53, 33, 13, 
|53, 35, 8, 
|53, 36, 7, 
|53, 38, 10, 
|53, 48, 3, 
|53, 54, 5, 
|53, 55, 4, 
|56, 2, 4, 
|56, 3, 11, 
|56, 10, 6, 
|56, 14, 8, 
|56, 16, 2, 
|56, 24, 3, 
|56, 28, 10, 
|56, 29, 9, 
|56, 42, 5, 
|56, 46, 7, 
|57, 26, 13, 
|57, 47, 8, 
|57, 58, 12, 
|57, 59, 9, 
|57, 60, 11, 
|57, 61, 10, 
|62, 4, 9, 
|62, 12, 7, 
|62, 13, 10, 
|62, 23, 5, 
|62, 24, 2, 
|62, 39, 3, 
|62, 42, 6, 
|62, 46, 8, 
|62, 54, 4, 
|64, 19, 10, 
|64, 29, 11, 
|64, 46, 9, 
|64, 50, 6, 
|64, 52, 4, 
|64, 63, 12, 
|64, 68, 8, 
|64, 69, 5, 
|65, 14, 9, 
|65, 24, 8, 
|65, 26, 12, 
|65, 33, 14, 
|65, 38, 13, 
|65, 45, 5, 
|65, 46, 4, 
|65, 52, 6, 
|65, 54, 3, 
|65, 60, 10, 
|65, 63, 11, 
|65, 64, 7, 
|66, 2, 6, 
|66, 3, 12, 
|66, 4, 11, 
|66, 9, 14, 
|66, 18, 3, 
|66, 24, 5, 
|66, 26, 15, 
|66, 29, 13, 
|66, 34, 9, 
|66, 39, 2, 
|66, 45, 4, 
|66, 50, 7, 
|66, 59, 8, 
|66, 63, 10, 
|66, 67, 1, 
|70, 6, 10, 
|70, 7, 8, 
|70, 8, 12, 
|70, 32, 13, 
|70, 34, 11, 
|70, 35, 9, 
|];
